data/medium_8.dzn
num_nodi = 7;
ufficio_postale = 5;
dim_borsa = 40;
max_step = 17;
elenco_lettere = [20, 13, 11, 5, 0, 0, 0];
distanze = [|0, 13, 1, 17, 20, 6, 1
|19, 0, 18, 18, 14, 7, 24
|12, 19, 0, 2, 17, 3, 4
|2, 20, 19, 0, 11, 8, 12
|3, 14, 19, 10, 0, 25, 24
|2, 13, 2, 3, 20, 0, 9
|18, 22, 18, 21, 8, 9, 0
|];
