data/medium_8.lp
node(1..7).

ufficio_postale(5).

dim_borsa(40).

time(1..17).

lettere(1,20).
lettere(2,13).
lettere(3,11).
lettere(4,5).
lettere(5,0).
lettere(6,0).
lettere(7,0).

costo_arco(1, 1, 0).
costo_arco(1, 2, 13).
costo_arco(1, 3, 1).
costo_arco(1, 4, 17).
costo_arco(1, 5, 20).
costo_arco(1, 6, 6).
costo_arco(1, 7, 1).

costo_arco(2, 1, 19).
costo_arco(2, 2, 0).
costo_arco(2, 3, 18).
costo_arco(2, 4, 18).
costo_arco(2, 5, 14).
costo_arco(2, 6, 7).
costo_arco(2, 7, 24).

costo_arco(3, 1, 12).
costo_arco(3, 2, 19).
costo_arco(3, 3, 0).
costo_arco(3, 4, 2).
costo_arco(3, 5, 17).
costo_arco(3, 6, 3).
costo_arco(3, 7, 4).

costo_arco(4, 1, 2).
costo_arco(4, 2, 20).
costo_arco(4, 3, 19).
costo_arco(4, 4, 0).
costo_arco(4, 5, 11).
costo_arco(4, 6, 8).
costo_arco(4, 7, 12).

costo_arco(5, 1, 3).
costo_arco(5, 2, 14).
costo_arco(5, 3, 19).
costo_arco(5, 4, 10).
costo_arco(5, 5, 0).
costo_arco(5, 6, 25).
costo_arco(5, 7, 24).

costo_arco(6, 1, 2).
costo_arco(6, 2, 13).
costo_arco(6, 3, 2).
costo_arco(6, 4, 3).
costo_arco(6, 5, 20).
costo_arco(6, 6, 0).
costo_arco(6, 7, 9).

costo_arco(7, 1, 18).
costo_arco(7, 2, 22).
costo_arco(7, 3, 18).
costo_arco(7, 4, 21).
costo_arco(7, 5, 8).
costo_arco(7, 6, 9).
costo_arco(7, 7, 0).

